solution status: optimal solution found
objective value:                      149089.95922233
d11(0,0)                                            1 	(obj:0)
d11(1,1)                                            1 	(obj:0)
d11(1,2)                                            1 	(obj:0)
d11(2,3)                                            1 	(obj:0)
d11(2,4)                                            1 	(obj:0)
d11(2,5)                                            1 	(obj:0)
d11(3,7)                                            1 	(obj:0)
d11(3,8)                                            1 	(obj:0)
d11(3,9)                                            1 	(obj:0)
d11(3,10)                                           1 	(obj:0)
d11(3,11)                                           1 	(obj:0)
d11(3,13)                                           1 	(obj:0)
d11(3,14)                                           1 	(obj:0)
d12(4,15)                                           1 	(obj:0)
d12(4,16)                                           1 	(obj:0)
d12(4,17)                                           1 	(obj:0)
d12(4,18)                                           1 	(obj:0)
d12(4,19)                                           1 	(obj:0)
d12(4,20)                                           1 	(obj:0)
d12(4,21)                                           1 	(obj:0)
d12(4,22)                                           1 	(obj:0)
d12(4,23)                                           1 	(obj:0)
d12(4,24)                                           1 	(obj:0)
d12(4,25)                                           1 	(obj:0)
d12(4,26)                                           1 	(obj:0)
d12(4,27)                                           1 	(obj:0)
d12(4,28)                                           1 	(obj:0)
d12(4,29)                                           1 	(obj:0)
d12(4,30)                                           1 	(obj:0)
d21(2,3)                                            1 	(obj:0)
d21(3,7)                                            1 	(obj:0)
d21(3,8)                                            1 	(obj:0)
d21(3,9)                                            1 	(obj:0)
d21(3,11)                                           1 	(obj:0)
d21(4,15)                                           1 	(obj:0)
d21(4,16)                                           1 	(obj:0)
d21(4,17)                                           1 	(obj:0)
d21(4,18)                                           1 	(obj:0)
d21(4,19)                                           1 	(obj:0)
d21(4,20)                                           1 	(obj:0)
d21(4,23)                                           1 	(obj:0)
d21(4,24)                                           1 	(obj:0)
y2(4,15)                             253.420946198756 	(obj:0)
y2(4,16)                             1745.84585519869 	(obj:0)
y2(4,17)                             253.420946198756 	(obj:0)
y2(4,18)                             1745.84585519869 	(obj:0)
y2(4,19)                             253.420946198756 	(obj:0)
y2(4,20)                             1745.84585519869 	(obj:0)
y2(4,21)                             253.420946198755 	(obj:0)
y2(4,22)                             1745.84585519869 	(obj:0)
y2(4,23)                             253.420946198756 	(obj:0)
y2(4,24)                             1745.84585519869 	(obj:0)
y2(4,25)                             253.420946198755 	(obj:0)
y2(4,26)                             1745.84585519869 	(obj:0)
y2(4,27)                             253.420946198784 	(obj:0)
y2(4,28)                             1745.84585519869 	(obj:0)
y2(4,29)                             253.420946198756 	(obj:0)
y2(4,30)                             1745.84585519869 	(obj:0)
STE(1,1)                             5586.75010111118 	(obj:0)
STE(0,0)                                         7875 	(obj:0)
STE(1,2)                                         7245 	(obj:0)
STE(2,3)                             3298.50020222237 	(obj:0)
STE(2,4)                             4956.75010111118 	(obj:0)
STE(2,5)                             4956.75010111118 	(obj:0)
STE(2,6)                                         6615 	(obj:0)
STE(3,7)                             1010.25030333352 	(obj:0)
STE(3,8)                             2668.50020222234 	(obj:0)
STE(3,9)                             2668.50020222234 	(obj:0)
STE(3,10)                            4326.75010111118 	(obj:0)
STE(3,11)                            2668.50020222234 	(obj:0)
STE(3,12)                            4326.75010111118 	(obj:0)
STE(3,13)                            4326.75010111115 	(obj:0)
STE(3,14)                            5984.99999999997 	(obj:0)
STE(4,15)                            621.000202222337 	(obj:0)
STE(4,16)                            2038.80386577228 	(obj:0)
STE(4,17)                            2279.25010111115 	(obj:0)
STE(4,18)                            3697.05376466109 	(obj:0)
STE(4,19)                            2279.25010111115 	(obj:0)
STE(4,20)                            3697.05376466109 	(obj:0)
STE(4,21)                                      3937.5 	(obj:0)
STE(4,22)                            5355.30366354994 	(obj:0)
STE(4,23)                            2279.25010111115 	(obj:0)
STE(4,24)                            3697.05376466109 	(obj:0)
STE(4,25)                                      3937.5 	(obj:0)
STE(4,26)                            5355.30366354994 	(obj:0)
STE(4,27)                                      3937.5 	(obj:0)
STE(4,28)                            5355.30366354991 	(obj:0)
STE(4,29)                            5595.74989888879 	(obj:0)
STE(4,30)                            7013.55356243873 	(obj:0)
y1(3,11)                             1492.42490899996 	(obj:0)
y1(3,13)                             1492.42490899996 	(obj:0)
AVE(1)                               3265.91696791192 	(obj:0)
AVE(2)                               3332.74178563731 	(obj:0)
AVE(3)                               3444.11697932125 	(obj:0)
WB(4)                                3399.56511093778 	(obj:0)
AVE(4)                               3399.56511093778 	(obj:0)
WG(1)                                3265.91696791192 	(obj:10)
WG(2)                                3332.74178563734 	(obj:10)
WG(3)                                3444.11697932125 	(obj:10)
BG(1)                                930.375531067646 	(obj:10)
BG(2)                                 863.55071334223 	(obj:10)
BG(3)                                752.175519658342 	(obj:10)
BG(4)                                2320.11842529538 	(obj:10)
y1(1,1)                              1492.42490899994 	(obj:0)
y1(2,3)                              1492.42490899994 	(obj:0)
y1(2,5)                              1492.42490899994 	(obj:0)
y1(3,7)                              1492.42490899996 	(obj:0)
y1(3,9)                              1492.42490899996 	(obj:0)
